
Gurobi 9.1.0 (win64) logging started Sat Dec 12 22:34:46 2020

Changed value of parameter LogFile to logs/iteration16
   Prev:   Default: 
Gurobi Optimizer version 9.1.0 build v9.1.0rc0 (win64)
Thread count: 4 physical cores, 8 logical processors, using up to 8 threads
Optimize a model with 136 rows, 886 columns and 3555 nonzeros
Model fingerprint: 0x19a07133
Coefficient statistics:
  Matrix range     [1e+00, 1e+00]
  Objective range  [1e+03, 4e+03]
  Bounds range     [0e+00, 0e+00]
  RHS range        [1e+00, 1e+00]
Presolve removed 12 rows and 12 columns
Presolve time: 0.00s
Presolved: 124 rows, 874 columns, 3542 nonzeros

Iteration    Objective       Primal Inf.    Dual Inf.      Time
       0    6.3970833e+04   9.100000e+01   0.000000e+00      0s
     407    9.5174167e+04   0.000000e+00   0.000000e+00      0s

Solved in 407 iterations and 0.01 seconds
Optimal objective  9.517416667e+04

Solutionx[24] 1.000000 
x[26] 1.000000 
x[28] 0.506944 
x[29] 0.305556 
x[37] 0.534722 
x[38] 0.652778 
x[43] 0.652778 
x[47] 0.347222 
x[64] 1.000000 
x[67] 1.000000 
x[70] 1.000000 
x[72] 1.000000 
x[76] 1.000000 
x[77] 1.000000 
x[78] 1.000000 
x[101] 0.500000 
x[104] 1.000000 
x[107] 1.000000 
x[113] 0.194444 
x[118] 1.000000 
x[121] 0.694444 
x[122] 0.305556 
x[124] 1.000000 
x[125] 1.000000 
x[126] 0.805556 
x[127] 0.194444 
x[130] 0.805556 
x[131] 1.000000 
x[132] 1.000000 
x[134] 1.000000 
x[135] 1.000000 
x[179] 0.305556 
x[810] 1.000000 
x[819] 0.652778 
x[821] 0.347222 
x[1337] 0.194444 
x[1808] 0.347222 
x[2878] 0.076389 
x[3178] 0.270833 
x[7883] 0.625000 
x[19875] 0.375000 
x[21791] 0.194444 
x[29392] 0.805556 
x[3606] 0.500000 
x[4047] 0.458333 
x[1305] 0.041667 
x[7930] 0.500000 
x[512] 0.194444 
x[879] 1.000000 
x[887] 0.111111 
x[8183] 0.194444 
x[11407] 0.805556 
x[27834] 0.500000 
x[10628] 0.263889 
x[27196] 0.055556 
x[2833] 0.055556 
x[15783] 0.319444 
x[17723] 0.076389 
x[26654] 0.729167 
x[29867] 0.194444 
x[32577] 0.805556 
x[12011] 0.923611 
x[21109] 0.076389 
x[17282] 1.000000 
x[20845] 0.305556 
x[10840] 0.305556 
x[28247] 0.694444 
x[14661] 1.000000 
x[12247] 1.000000 
x[28684] 0.194444 
x[18707] 0.611111 
x[1922] 0.194444 
x[17131] 0.500000 
x[25678] 0.500000 
x[14101] 0.500000 
x[17081] 0.194444 
x[16358] 0.305556 
x[6688] 0.694444 
x[16332] 0.152778 
x[21686] 0.041667 
x[19971] 0.805556 
x[18863] 0.500000 
x[6064] 0.694444 
x[19011] 0.305556 
x[23131] 0.194444 
x[5044] 0.305556 
x[33356] 0.500000 
x[14992] 0.500000 
x[4941] 0.194444 
x[7264] 0.305556 

Gurobi 9.1.0 (win64) logging started Sun Dec 13 15:17:04 2020

Changed value of parameter LogFile to logs/iteration16
   Prev:   Default: 
Gurobi Optimizer version 9.1.0 build v9.1.0rc0 (win64)
Thread count: 4 physical cores, 8 logical processors, using up to 8 threads
Optimize a model with 136 rows, 886 columns and 3555 nonzeros
Model fingerprint: 0x19a07133
Coefficient statistics:
  Matrix range     [1e+00, 1e+00]
  Objective range  [1e+03, 4e+03]
  Bounds range     [0e+00, 0e+00]
  RHS range        [1e+00, 1e+00]
Presolve removed 12 rows and 12 columns
Presolve time: 0.00s
Presolved: 124 rows, 874 columns, 3542 nonzeros

Iteration    Objective       Primal Inf.    Dual Inf.      Time
       0    6.3970833e+04   9.100000e+01   0.000000e+00      0s
     407    9.5174167e+04   0.000000e+00   0.000000e+00      0s

Solved in 407 iterations and 0.01 seconds
Optimal objective  9.517416667e+04

Solutionx[24] 1.000000 
x[26] 1.000000 
x[28] 0.506944 
x[29] 0.305556 
x[37] 0.534722 
x[38] 0.652778 
x[43] 0.652778 
x[47] 0.347222 
x[64] 1.000000 
x[67] 1.000000 
x[70] 1.000000 
x[72] 1.000000 
x[76] 1.000000 
x[77] 1.000000 
x[78] 1.000000 
x[101] 0.500000 
x[104] 1.000000 
x[107] 1.000000 
x[113] 0.194444 
x[118] 1.000000 
x[121] 0.694444 
x[122] 0.305556 
x[124] 1.000000 
x[125] 1.000000 
x[126] 0.805556 
x[127] 0.194444 
x[130] 0.805556 
x[131] 1.000000 
x[132] 1.000000 
x[134] 1.000000 
x[135] 1.000000 
x[179] 0.305556 
x[810] 1.000000 
x[819] 0.652778 
x[821] 0.347222 
x[1337] 0.194444 
x[1808] 0.347222 
x[2878] 0.076389 
x[3178] 0.270833 
x[7883] 0.625000 
x[19875] 0.375000 
x[21791] 0.194444 
x[29392] 0.805556 
x[3606] 0.500000 
x[4047] 0.458333 
x[1305] 0.041667 
x[7930] 0.500000 
x[512] 0.194444 
x[879] 1.000000 
x[887] 0.111111 
x[8183] 0.194444 
x[11407] 0.805556 
x[27834] 0.500000 
x[10628] 0.263889 
x[27196] 0.055556 
x[2833] 0.055556 
x[15783] 0.319444 
x[17723] 0.076389 
x[26654] 0.729167 
x[29867] 0.194444 
x[32577] 0.805556 
x[12011] 0.923611 
x[21109] 0.076389 
x[17282] 1.000000 
x[20845] 0.305556 
x[10840] 0.305556 
x[28247] 0.694444 
x[14661] 1.000000 
x[12247] 1.000000 
x[28684] 0.194444 
x[18707] 0.611111 
x[1922] 0.194444 
x[17131] 0.500000 
x[25678] 0.500000 
x[14101] 0.500000 
x[17081] 0.194444 
x[16358] 0.305556 
x[6688] 0.694444 
x[16332] 0.152778 
x[21686] 0.041667 
x[19971] 0.805556 
x[18863] 0.500000 
x[6064] 0.694444 
x[19011] 0.305556 
x[23131] 0.194444 
x[5044] 0.305556 
x[33356] 0.500000 
x[14992] 0.500000 
x[4941] 0.194444 
x[7264] 0.305556 

Gurobi 9.1.0 (win64) logging started Sun Dec 13 15:18:49 2020

Changed value of parameter LogFile to logs/iteration16
   Prev:   Default: 
Gurobi Optimizer version 9.1.0 build v9.1.0rc0 (win64)
Thread count: 4 physical cores, 8 logical processors, using up to 8 threads
Optimize a model with 136 rows, 886 columns and 3555 nonzeros
Model fingerprint: 0x19a07133
Coefficient statistics:
  Matrix range     [1e+00, 1e+00]
  Objective range  [1e+03, 4e+03]
  Bounds range     [0e+00, 0e+00]
  RHS range        [1e+00, 1e+00]
Presolve removed 12 rows and 12 columns
Presolve time: 0.00s
Presolved: 124 rows, 874 columns, 3542 nonzeros

Iteration    Objective       Primal Inf.    Dual Inf.      Time
       0    6.3970833e+04   9.100000e+01   0.000000e+00      0s
     407    9.5174167e+04   0.000000e+00   0.000000e+00      0s

Solved in 407 iterations and 0.01 seconds
Optimal objective  9.517416667e+04

Solutionx[24] 1.000000 
x[26] 1.000000 
x[28] 0.506944 
x[29] 0.305556 
x[37] 0.534722 
x[38] 0.652778 
x[43] 0.652778 
x[47] 0.347222 
x[64] 1.000000 
x[67] 1.000000 
x[70] 1.000000 
x[72] 1.000000 
x[76] 1.000000 
x[77] 1.000000 
x[78] 1.000000 
x[101] 0.500000 
x[104] 1.000000 
x[107] 1.000000 
x[113] 0.194444 
x[118] 1.000000 
x[121] 0.694444 
x[122] 0.305556 
x[124] 1.000000 
x[125] 1.000000 
x[126] 0.805556 
x[127] 0.194444 
x[130] 0.805556 
x[131] 1.000000 
x[132] 1.000000 
x[134] 1.000000 
x[135] 1.000000 
x[179] 0.305556 
x[810] 1.000000 
x[819] 0.652778 
x[821] 0.347222 
x[1337] 0.194444 
x[1808] 0.347222 
x[2878] 0.076389 
x[3178] 0.270833 
x[7883] 0.625000 
x[19875] 0.375000 
x[21791] 0.194444 
x[29392] 0.805556 
x[3606] 0.500000 
x[4047] 0.458333 
x[1305] 0.041667 
x[7930] 0.500000 
x[512] 0.194444 
x[879] 1.000000 
x[887] 0.111111 
x[8183] 0.194444 
x[11407] 0.805556 
x[27834] 0.500000 
x[10628] 0.263889 
x[27196] 0.055556 
x[2833] 0.055556 
x[15783] 0.319444 
x[17723] 0.076389 
x[26654] 0.729167 
x[29867] 0.194444 
x[32577] 0.805556 
x[12011] 0.923611 
x[21109] 0.076389 
x[17282] 1.000000 
x[20845] 0.305556 
x[10840] 0.305556 
x[28247] 0.694444 
x[14661] 1.000000 
x[12247] 1.000000 
x[28684] 0.194444 
x[18707] 0.611111 
x[1922] 0.194444 
x[17131] 0.500000 
x[25678] 0.500000 
x[14101] 0.500000 
x[17081] 0.194444 
x[16358] 0.305556 
x[6688] 0.694444 
x[16332] 0.152778 
x[21686] 0.041667 
x[19971] 0.805556 
x[18863] 0.500000 
x[6064] 0.694444 
x[19011] 0.305556 
x[23131] 0.194444 
x[5044] 0.305556 
x[33356] 0.500000 
x[14992] 0.500000 
x[4941] 0.194444 
x[7264] 0.305556 

Gurobi 9.1.0 (win64) logging started Sun Dec 13 15:22:25 2020

Changed value of parameter LogFile to logs/iteration16
   Prev:   Default: 
Gurobi Optimizer version 9.1.0 build v9.1.0rc0 (win64)
Thread count: 4 physical cores, 8 logical processors, using up to 8 threads
Optimize a model with 136 rows, 886 columns and 3555 nonzeros
Model fingerprint: 0x19a07133
Coefficient statistics:
  Matrix range     [1e+00, 1e+00]
  Objective range  [1e+03, 4e+03]
  Bounds range     [0e+00, 0e+00]
  RHS range        [1e+00, 1e+00]
Presolve removed 12 rows and 12 columns
Presolve time: 0.00s
Presolved: 124 rows, 874 columns, 3542 nonzeros

Iteration    Objective       Primal Inf.    Dual Inf.      Time
       0    6.3970833e+04   9.100000e+01   0.000000e+00      0s
     407    9.5174167e+04   0.000000e+00   0.000000e+00      0s

Solved in 407 iterations and 0.01 seconds
Optimal objective  9.517416667e+04

Solutionx[24] 1.000000 
x[26] 1.000000 
x[28] 0.506944 
x[29] 0.305556 
x[37] 0.534722 
x[38] 0.652778 
x[43] 0.652778 
x[47] 0.347222 
x[64] 1.000000 
x[67] 1.000000 
x[70] 1.000000 
x[72] 1.000000 
x[76] 1.000000 
x[77] 1.000000 
x[78] 1.000000 
x[101] 0.500000 
x[104] 1.000000 
x[107] 1.000000 
x[113] 0.194444 
x[118] 1.000000 
x[121] 0.694444 
x[122] 0.305556 
x[124] 1.000000 
x[125] 1.000000 
x[126] 0.805556 
x[127] 0.194444 
x[130] 0.805556 
x[131] 1.000000 
x[132] 1.000000 
x[134] 1.000000 
x[135] 1.000000 
x[179] 0.305556 
x[810] 1.000000 
x[819] 0.652778 
x[821] 0.347222 
x[1337] 0.194444 
x[1808] 0.347222 
x[2878] 0.076389 
x[3178] 0.270833 
x[7883] 0.625000 
x[19875] 0.375000 
x[21791] 0.194444 
x[29392] 0.805556 
x[3606] 0.500000 
x[4047] 0.458333 
x[1305] 0.041667 
x[7930] 0.500000 
x[512] 0.194444 
x[879] 1.000000 
x[887] 0.111111 
x[8183] 0.194444 
x[11407] 0.805556 
x[27834] 0.500000 
x[10628] 0.263889 
x[27196] 0.055556 
x[2833] 0.055556 
x[15783] 0.319444 
x[17723] 0.076389 
x[26654] 0.729167 
x[29867] 0.194444 
x[32577] 0.805556 
x[12011] 0.923611 
x[21109] 0.076389 
x[17282] 1.000000 
x[20845] 0.305556 
x[10840] 0.305556 
x[28247] 0.694444 
x[14661] 1.000000 
x[12247] 1.000000 
x[28684] 0.194444 
x[18707] 0.611111 
x[1922] 0.194444 
x[17131] 0.500000 
x[25678] 0.500000 
x[14101] 0.500000 
x[17081] 0.194444 
x[16358] 0.305556 
x[6688] 0.694444 
x[16332] 0.152778 
x[21686] 0.041667 
x[19971] 0.805556 
x[18863] 0.500000 
x[6064] 0.694444 
x[19011] 0.305556 
x[23131] 0.194444 
x[5044] 0.305556 
x[33356] 0.500000 
x[14992] 0.500000 
x[4941] 0.194444 
x[7264] 0.305556 

Gurobi 9.1.0 (win64) logging started Sun Dec 13 15:26:29 2020

Changed value of parameter LogFile to logs/iteration16
   Prev:   Default: 
Gurobi Optimizer version 9.1.0 build v9.1.0rc0 (win64)
Thread count: 4 physical cores, 8 logical processors, using up to 8 threads
Optimize a model with 136 rows, 886 columns and 3555 nonzeros
Model fingerprint: 0x19a07133
Coefficient statistics:
  Matrix range     [1e+00, 1e+00]
  Objective range  [1e+03, 4e+03]
  Bounds range     [0e+00, 0e+00]
  RHS range        [1e+00, 1e+00]
Presolve removed 12 rows and 12 columns
Presolve time: 0.00s
Presolved: 124 rows, 874 columns, 3542 nonzeros

Iteration    Objective       Primal Inf.    Dual Inf.      Time
       0    6.3970833e+04   9.100000e+01   0.000000e+00      0s
     407    9.5174167e+04   0.000000e+00   0.000000e+00      0s

Solved in 407 iterations and 0.01 seconds
Optimal objective  9.517416667e+04

Solutionx[24] 1.000000 
x[26] 1.000000 
x[28] 0.506944 
x[29] 0.305556 
x[37] 0.534722 
x[38] 0.652778 
x[43] 0.652778 
x[47] 0.347222 
x[64] 1.000000 
x[67] 1.000000 
x[70] 1.000000 
x[72] 1.000000 
x[76] 1.000000 
x[77] 1.000000 
x[78] 1.000000 
x[101] 0.500000 
x[104] 1.000000 
x[107] 1.000000 
x[113] 0.194444 
x[118] 1.000000 
x[121] 0.694444 
x[122] 0.305556 
x[124] 1.000000 
x[125] 1.000000 
x[126] 0.805556 
x[127] 0.194444 
x[130] 0.805556 
x[131] 1.000000 
x[132] 1.000000 
x[134] 1.000000 
x[135] 1.000000 
x[179] 0.305556 
x[810] 1.000000 
x[819] 0.652778 
x[821] 0.347222 
x[1337] 0.194444 
x[1808] 0.347222 
x[2878] 0.076389 
x[3178] 0.270833 
x[7883] 0.625000 
x[19875] 0.375000 
x[21791] 0.194444 
x[29392] 0.805556 
x[3606] 0.500000 
x[4047] 0.458333 
x[1305] 0.041667 
x[7930] 0.500000 
x[512] 0.194444 
x[879] 1.000000 
x[887] 0.111111 
x[8183] 0.194444 
x[11407] 0.805556 
x[27834] 0.500000 
x[10628] 0.263889 
x[27196] 0.055556 
x[2833] 0.055556 
x[15783] 0.319444 
x[17723] 0.076389 
x[26654] 0.729167 
x[29867] 0.194444 
x[32577] 0.805556 
x[12011] 0.923611 
x[21109] 0.076389 
x[17282] 1.000000 
x[20845] 0.305556 
x[10840] 0.305556 
x[28247] 0.694444 
x[14661] 1.000000 
x[12247] 1.000000 
x[28684] 0.194444 
x[18707] 0.611111 
x[1922] 0.194444 
x[17131] 0.500000 
x[25678] 0.500000 
x[14101] 0.500000 
x[17081] 0.194444 
x[16358] 0.305556 
x[6688] 0.694444 
x[16332] 0.152778 
x[21686] 0.041667 
x[19971] 0.805556 
x[18863] 0.500000 
x[6064] 0.694444 
x[19011] 0.305556 
x[23131] 0.194444 
x[5044] 0.305556 
x[33356] 0.500000 
x[14992] 0.500000 
x[4941] 0.194444 
x[7264] 0.305556 

Gurobi 9.1.0 (win64) logging started Sun Dec 13 13:25:05 2020

Changed value of parameter LogFile to logs/iteration16
   Prev:   Default: 
Gurobi Optimizer version 9.1.0 build v9.1.0rc0 (win64)
Thread count: 4 physical cores, 8 logical processors, using up to 8 threads
Optimize a model with 136 rows, 886 columns and 3555 nonzeros
Model fingerprint: 0x19a07133
Coefficient statistics:
  Matrix range     [1e+00, 1e+00]
  Objective range  [1e+03, 4e+03]
  Bounds range     [0e+00, 0e+00]
  RHS range        [1e+00, 1e+00]
Presolve removed 12 rows and 12 columns
Presolve time: 0.00s
Presolved: 124 rows, 874 columns, 3542 nonzeros

Iteration    Objective       Primal Inf.    Dual Inf.      Time
       0    6.3970833e+04   9.100000e+01   0.000000e+00      0s
     407    9.5174167e+04   0.000000e+00   0.000000e+00      0s

Solved in 407 iterations and 0.01 seconds
Optimal objective  9.517416667e+04

Solutionx[24] 1.000000 
x[26] 1.000000 
x[28] 0.506944 
x[29] 0.305556 
x[37] 0.534722 
x[38] 0.652778 
x[43] 0.652778 
x[47] 0.347222 
x[64] 1.000000 
x[67] 1.000000 
x[70] 1.000000 
x[72] 1.000000 
x[76] 1.000000 
x[77] 1.000000 
x[78] 1.000000 
x[101] 0.500000 
x[104] 1.000000 
x[107] 1.000000 
x[113] 0.194444 
x[118] 1.000000 
x[121] 0.694444 
x[122] 0.305556 
x[124] 1.000000 
x[125] 1.000000 
x[126] 0.805556 
x[127] 0.194444 
x[130] 0.805556 
x[131] 1.000000 
x[132] 1.000000 
x[134] 1.000000 
x[135] 1.000000 
x[179] 0.305556 
x[810] 1.000000 
x[819] 0.652778 
x[821] 0.347222 
x[1337] 0.194444 
x[1808] 0.347222 
x[2878] 0.076389 
x[3178] 0.270833 
x[7883] 0.625000 
x[19875] 0.375000 
x[21791] 0.194444 
x[29392] 0.805556 
x[3606] 0.500000 
x[4047] 0.458333 
x[1305] 0.041667 
x[7930] 0.500000 
x[512] 0.194444 
x[879] 1.000000 
x[887] 0.111111 
x[8183] 0.194444 
x[11407] 0.805556 
x[27834] 0.500000 
x[10628] 0.263889 
x[27196] 0.055556 
x[2833] 0.055556 
x[15783] 0.319444 
x[17723] 0.076389 
x[26654] 0.729167 
x[29867] 0.194444 
x[32577] 0.805556 
x[12011] 0.923611 
x[21109] 0.076389 
x[17282] 1.000000 
x[20845] 0.305556 
x[10840] 0.305556 
x[28247] 0.694444 
x[14661] 1.000000 
x[12247] 1.000000 
x[28684] 0.194444 
x[18707] 0.611111 
x[1922] 0.194444 
x[17131] 0.500000 
x[25678] 0.500000 
x[14101] 0.500000 
x[17081] 0.194444 
x[16358] 0.305556 
x[6688] 0.694444 
x[16332] 0.152778 
x[21686] 0.041667 
x[19971] 0.805556 
x[18863] 0.500000 
x[6064] 0.694444 
x[19011] 0.305556 
x[23131] 0.194444 
x[5044] 0.305556 
x[33356] 0.500000 
x[14992] 0.500000 
x[4941] 0.194444 
x[7264] 0.305556 
